40
1 0 1
2 0 6
2 1 2
3 0 6
3 1 5
3 2 4
4 0 4
4 1 7
4 2 1
4 3 4
5 0 2
5 1 6
5 2 1
5 3 1
5 4 4
6 0 5
6 1 7
6 2 6
6 3 7
6 4 5
6 5 5
7 0 2
7 1 2
7 2 2
7 3 3
7 4 6
7 5 1
7 6 7
8 0 5
8 1 3
8 2 6
8 3 2
8 4 7
8 5 3
8 6 6
8 7 6
9 0 5
9 1 2
9 2 1
9 3 4
9 4 6
9 5 4
9 6 7
9 7 7
9 8 6
10 0 2
10 1 7
10 2 1
10 3 3
10 4 2
10 5 2
10 6 4
10 7 1
10 8 6
10 9 7
11 0 3
11 1 5
11 2 6
11 3 6
11 4 5
11 5 4
11 6 7
11 7 1
11 8 7
11 9 2
11 10 3
12 0 6
12 1 2
12 2 5
12 3 3
12 4 2
12 5 3
12 6 3
12 7 5
12 8 3
12 9 7
12 10 1
12 11 7
13 0 6
13 1 4
13 2 4
13 3 6
13 4 4
13 5 5
13 6 4
13 7 1
13 8 5
13 9 6
13 10 3
13 11 7
13 12 1
14 0 7
14 1 6
14 2 4
14 3 6
14 4 6
14 5 6
14 6 4
14 7 7
14 8 1
14 9 2
14 10 1
14 11 6
14 12 3
14 13 3
15 0 3
15 1 1
15 2 1
15 3 5
15 4 3
15 5 6
15 6 4
15 7 3
15 8 6
15 9 2
15 10 4
15 11 4
15 12 3
15 13 4
15 14 1
16 0 3
16 1 2
16 2 1
16 3 4
16 4 4
16 5 7
16 6 5
16 7 2
16 8 4
16 9 1
16 10 5
16 11 5
16 12 1
16 13 1
16 14 7
16 15 4
17 0 1
17 1 1
17 2 5
17 3 2
17 4 1
17 5 3
17 6 2
17 7 7
17 8 7
17 9 3
17 10 4
17 11 2
17 12 3
17 13 1
17 14 4
17 15 3
17 16 4
18 0 5
18 1 6
18 2 6
18 3 4
18 4 2
18 5 1
18 6 2
18 7 4
18 8 1
18 9 4
18 10 7
18 11 2
18 12 2
18 13 7
18 14 6
18 15 3
18 16 3
18 17 3
19 0 6
19 1 3
19 2 5
19 3 7
19 4 6
19 5 7
19 6 6
19 7 4
19 8 6
19 9 2
19 10 4
19 11 2
19 12 1
19 13 7
19 14 4
19 15 1
19 16 1
19 17 1
19 18 5
20 0 4
20 1 5
20 2 6
20 3 1
20 4 3
20 5 2
20 6 4
20 7 6
20 8 4
20 9 7
20 10 7
20 11 6
20 12 4
20 13 2
20 14 6
20 15 4
20 16 3
20 17 1
20 18 7
20 19 4
21 0 1
21 1 2
21 2 6
21 3 7
21 4 6
21 5 7
21 6 2
21 7 1
21 8 6
21 9 4
21 10 7
21 11 6
21 12 2
21 13 2
21 14 7
21 15 2
21 16 5
21 17 2
21 18 6
21 19 6
21 20 2
22 0 3
22 1 6
22 2 1
22 3 5
22 4 1
22 5 6
22 6 5
22 7 7
22 8 4
22 9 1
22 10 2
22 11 3
22 12 2
22 13 3
22 14 5
22 15 3
22 16 4
22 17 3
22 18 5
22 19 2
22 20 2
22 21 2
23 0 2
23 1 4
23 2 1
23 3 2
23 4 1
23 5 2
23 6 7
23 7 7
23 8 6
23 9 1
23 10 3
23 11 5
23 12 4
23 13 6
23 14 7
23 15 5
23 16 6
23 17 7
23 18 2
23 19 5
23 20 4
23 21 3
23 22 7
24 0 7
24 1 2
24 2 2
24 3 1
24 4 7
24 5 7
24 6 2
24 7 1
24 8 5
24 9 5
24 10 2
24 11 4
24 12 1
24 13 7
24 14 4
24 15 1
24 16 4
24 17 2
24 18 6
24 19 6
24 20 6
24 21 4
24 22 6
24 23 4
25 0 5
25 1 6
25 2 4
25 3 7
25 4 6
25 5 1
25 6 5
25 7 6
25 8 6
25 9 5
25 10 4
25 11 4
25 12 3
25 13 5
25 14 6
25 15 2
25 16 1
25 17 7
25 18 4
25 19 7
25 20 6
25 21 6
25 22 7
25 23 7
25 24 7
26 0 1
26 1 4
26 2 1
26 3 6
26 4 5
26 5 6
26 6 2
26 7 3
26 8 5
26 9 1
26 10 7
26 11 7
26 12 4
26 13 3
26 14 2
26 15 6
26 16 1
26 17 6
26 18 5
26 19 4
26 20 3
26 21 6
26 22 1
26 23 4
26 24 5
26 25 6
27 0 5
27 1 4
27 2 6
27 3 3
27 4 2
27 5 5
27 6 7
27 7 6
27 8 5
27 9 3
27 10 3
27 11 6
27 12 2
27 13 6
27 14 4
27 15 5
27 16 7
27 17 7
27 18 2
27 19 4
27 20 5
27 21 2
27 22 5
27 23 1
27 24 5
27 25 5
27 26 1
28 0 7
28 1 3
28 2 4
28 3 5
28 4 1
28 5 7
28 6 2
28 7 5
28 8 2
28 9 1
28 10 3
28 11 1
28 12 6
28 13 7
28 14 2
28 15 6
28 16 6
28 17 1
28 18 3
28 19 1
28 20 1
28 21 5
28 22 5
28 23 4
28 24 2
28 25 6
28 26 6
28 27 1
29 0 2
29 1 3
29 2 6
29 3 4
29 4 4
29 5 2
29 6 3
29 7 2
29 8 3
29 9 2
29 10 7
29 11 7
29 12 5
29 13 3
29 14 4
29 15 1
29 16 6
29 17 6
29 18 5
29 19 3
29 20 6
29 21 6
29 22 6
29 23 5
29 24 1
29 25 7
29 26 7
29 27 5
29 28 4
30 0 2
30 1 7
30 2 5
30 3 4
30 4 2
30 5 2
30 6 2
30 7 7
30 8 5
30 9 7
30 10 1
30 11 1
30 12 7
30 13 1
30 14 7
30 15 1
30 16 1
30 17 5
30 18 1
30 19 2
30 20 1
30 21 5
30 22 6
30 23 5
30 24 5
30 25 6
30 26 6
30 27 7
30 28 1
30 29 5
31 0 2
31 1 5
31 2 2
31 3 2
31 4 5
31 5 2
31 6 3
31 7 2
31 8 3
31 9 1
31 10 6
31 11 6
31 12 1
31 13 5
31 14 4
31 15 6
31 16 3
31 17 3
31 18 3
31 19 2
31 20 2
31 21 2
31 22 4
31 23 6
31 24 6
31 25 1
31 26 3
31 27 7
31 28 2
31 29 5
31 30 7
32 0 7
32 1 6
32 2 3
32 3 2
32 4 6
32 5 5
32 6 7
32 7 5
32 8 1
32 9 5
32 10 2
32 11 1
32 12 6
32 13 2
32 14 7
32 15 3
32 16 1
32 17 5
32 18 5
32 19 7
32 20 3
32 21 7
32 22 7
32 23 2
32 24 5
32 25 5
32 26 3
32 27 7
32 28 7
32 29 5
32 30 5
32 31 7
33 0 6
33 1 5
33 2 5
33 3 3
33 4 1
33 5 7
33 6 6
33 7 1
33 8 7
33 9 7
33 10 6
33 11 6
33 12 4
33 13 2
33 14 4
33 15 6
33 16 3
33 17 5
33 18 6
33 19 5
33 20 1
33 21 7
33 22 2
33 23 6
33 24 7
33 25 5
33 26 6
33 27 5
33 28 5
33 29 7
33 30 2
33 31 6
33 32 5
34 0 4
34 1 7
34 2 2
34 3 4
34 4 3
34 5 2
34 6 5
34 7 1
34 8 5
34 9 1
34 10 1
34 11 5
34 12 1
34 13 1
34 14 7
34 15 4
34 16 7
34 17 1
34 18 1
34 19 2
34 20 4
34 21 6
34 22 6
34 23 1
34 24 7
34 25 1
34 26 6
34 27 2
34 28 7
34 29 6
34 30 7
34 31 4
34 32 3
34 33 5
35 0 6
35 1 7
35 2 3
35 3 3
35 4 2
35 5 1
35 6 3
35 7 3
35 8 3
35 9 4
35 10 3
35 11 4
35 12 6
35 13 7
35 14 7
35 15 2
35 16 5
35 17 7
35 18 4
35 19 6
35 20 7
35 21 7
35 22 7
35 23 5
35 24 1
35 25 3
35 26 4
35 27 5
35 28 6
35 29 5
35 30 1
35 31 4
35 32 2
35 33 4
35 34 1
36 0 1
36 1 6
36 2 6
36 3 1
36 4 1
36 5 3
36 6 2
36 7 5
36 8 2
36 9 7
36 10 5
36 11 2
36 12 7
36 13 3
36 14 3
36 15 2
36 16 4
36 17 3
36 18 5
36 19 1
36 20 4
36 21 7
36 22 7
36 23 2
36 24 1
36 25 3
36 26 7
36 27 7
36 28 4
36 29 2
36 30 1
36 31 7
36 32 5
36 33 6
36 34 4
36 35 6
37 0 1
37 1 7
37 2 1
37 3 4
37 4 6
37 5 7
37 6 5
37 7 7
37 8 4
37 9 1
37 10 1
37 11 3
37 12 2
37 13 6
37 14 1
37 15 2
37 16 2
37 17 1
37 18 7
37 19 7
37 20 5
37 21 5
37 22 4
37 23 1
37 24 5
37 25 2
37 26 5
37 27 1
37 28 3
37 29 5
37 30 1
37 31 6
37 32 4
37 33 6
37 34 4
37 35 1
37 36 5
38 0 4
38 1 5
38 2 6
38 3 5
38 4 1
38 5 2
38 6 1
38 7 2
38 8 2
38 9 7
38 10 7
38 11 4
38 12 1
38 13 6
38 14 6
38 15 6
38 16 1
38 17 5
38 18 4
38 19 5
38 20 3
38 21 4
38 22 1
38 23 4
38 24 4
38 25 3
38 26 3
38 27 7
38 28 2
38 29 7
38 30 6
38 31 3
38 32 3
38 33 4
38 34 1
38 35 3
38 36 2
38 37 2
39 0 5
39 1 2
39 2 5
39 3 3
39 4 1
39 5 6
39 6 5
39 7 5
39 8 7
39 9 4
39 10 1
39 11 2
39 12 4
39 13 5
39 14 5
39 15 6
39 16 5
39 17 7
39 18 1
39 19 4
39 20 1
39 21 6
39 22 6
39 23 2
39 24 5
39 25 2
39 26 6
39 27 6
39 28 5
39 29 7
39 30 7
39 31 1
39 32 6
39 33 2
39 34 6
39 35 7
39 36 7
39 37 7
39 38 6
